c status 12 1469388316962
c status 11 1469388316962
c status 10 1469388317033
s td 47 10 63
b 1 1 2 27
b 2 13 2 3 10 24 44
b 3 2 27 3 10 24 44
b 4 27 28 3 10 24 44
b 5 28 3 10 24 44 29 37
b 6 11 19 16 12 3 10
b 7 19 16 20 12 3 10 29 23
b 8 18 21 16 17
b 9 21 16 20 17 22
b 10 16 20 17 22 12 3 10 29 23
b 11 15 14 17 12
b 12 14 17 12 9
b 13 17 22 12 9 3 10 29 23
b 14 25 26 22 23
b 15 26 22 31 23
b 16 22 12 9 3 10 29 31 23
b 17 61 63 4 62 24 35
b 18 63 5 4 62 24 35
b 19 5 4 6 62 24 35
b 20 8 7 6 9
b 21 7 4 6 12 9 3
b 22 4 6 12 9 3 62 24 35
b 23 12 9 3 10 62 24 35 29 31 23
b 24 3 10 62 24 35 44 29 37 31 23
b 25 33 36 34 30 38 29
b 26 36 34 30 38 39 29
b 27 32 34 30 31
b 28 34 30 38 39 29 31
b 29 30 38 39 29 31 23
b 30 40 42 38 39
b 31 42 41 43 38 39
b 32 41 43 38 39 47 37
b 33 48 49 43 47
b 34 49 43 51 47
b 35 43 38 39 51 47 37
b 36 38 39 51 47 29 37 31 23
b 37 45 53 50 47 44 37
b 38 53 54 50 58 47 24 44 37
b 39 52 55 50 51
b 40 55 54 50 56 51
b 41 54 50 56 58 51 47 24 44 37
b 42 59 60 56 58
b 43 60 46 56 58
b 44 46 57 56 58 35
b 45 57 56 58 62 35
b 46 56 58 51 47 62 24 35 44 37
b 47 51 47 62 24 35 44 29 37 31 23
1 3
3 2
3 4
4 5
5 24
24 23
24 47
23 16
47 46
16 13
46 41
13 10
41 38
10 7
23 22
47 36
22 21
36 29
22 19
36 35
29 28
19 18
35 32
28 26
18 17
26 25
38 37
7 6
32 31
46 45
45 44
41 40
10 9
9 8
21 20
40 39
35 34
28 27
34 33
31 30
16 15
15 14
13 12
12 11
44 43
43 42
